proyfinal/src/viki/013/experimentInOfficeAgust.take6.output/58482639-5a48-4484-8e2d-3a894b943185.als.dat
{'cnf.clauses': '118081',
 'cnf.totvars': '69608',
 'conflict literals': '56',
 'conflicts': '29',
 'decisions': '11737',
 'memused.mb': '14.98',
 'outcome': 'UNSAT',
 'propagations': '44852',
 'restarts': '1',
 'solver.msecs': 29,
 'task.msecs': 132}
