proyfinal/src/viki/013/experimentInOfficeAgust.take6.output/58482639-5a48-4484-8e2d-3a894b943185.als.out
Reading from standard input... Use '--help' for help.
============================[ Problem Statistics ]=============================
|                                                                             |
|  Number of variables:         69608                                         |
|  Number of clauses:          118081                                         |
|  Parse time:                   0.02 s                                       |
|                                                                             |
============================[ Search Statistics ]==============================
| Conflicts |          ORIGINAL         |          LEARNT          | Progress |
|           |    Vars  Clauses Literals |    Limit  Clauses Lit/Cl |          |
===============================================================================
===============================================================================
restarts              : 1
conflicts             : 29             (999 /sec)
decisions             : 11737          (0.00 % random) (404208 /sec)
propagations          : 44852          (1544650 /sec)
conflict literals     : 56             (0.00 % deleted)
Memory used           : 14.98 MB
CPU time              : 0.029037 s

UNSATISFIABLE
